\ Model Worker_Wage_Equilibrium
\ LP format - for model browsing. Use MPS format to capture full model detail.
\ Signature: 0x427d6044d94e6bfe
Minimize
 
Subject To
 wage_normalization: p[0] = 60
 equilibrium_0: 9 p[0] - p[12] - p[45] - p[50] - p[65] - p[68] - p[76]
   - p[85] - p[88] - p[100] - p[104] - p[118] - p[119] - p[124] - p[125]
   - p[149] = 0
 equilibrium_1: - p[0] + 9 p[1] - p[2] - p[6] - p[20] - p[26] - p[50]
   - p[132] = 0
 equilibrium_2: - p[1] + 9 p[2] - p[17] - p[23] - p[68] - p[75] - p[77]
   - p[90] - p[101] = 0
 equilibrium_3: - p[2] + 9 p[3] - p[7] - p[32] - p[50] - p[76] - p[95]
   - p[97] - p[135] = 0
 equilibrium_4: - p[3] + 9 p[4] - p[11] - p[13] - p[41] - p[62] - p[72]
   - p[84] - p[101] - p[106] - p[111] - p[112] - p[133] = 0
 equilibrium_5: - p[4] + 9 p[5] - p[33] - p[42] - p[74] - p[82] - p[94]
   - p[97] = 0
 equilibrium_6: - p[5] + 9 p[6] - p[25] - p[61] - p[90] - p[130] - p[131]
   - p[149] = 0
 equilibrium_7: - 2 p[6] + 9 p[7] - p[31] - p[38] - p[41] - p[53] - p[69]
   - p[83] - p[88] - p[93] - p[126] - p[128] - p[129] - p[146] = 0
 equilibrium_8: - p[5] - p[7] + 9 p[8] - p[9] - p[26] - p[58] - p[61]
   - p[103] - p[135] = 0
 equilibrium_9: - p[8] + 9 p[9] - p[49] - p[71] - p[101] - p[111] - p[127]
   - p[148] = 0
 equilibrium_10: - p[9] + 9 p[10] - p[24] - p[72] - p[105] - p[114]
   - p[118] - p[132] - 2 p[141] = 0
 equilibrium_11: - p[10] + 8 p[11] - p[19] - p[51] - p[52] - p[55] - p[68]
   - p[77] - p[85] - p[139] - p[145] - p[146] - p[147] = 0
 equilibrium_12: - p[11] + 9 p[12] - p[15] - p[37] - p[43] - p[55] - p[92]
   - p[102] = 0
 equilibrium_13: - p[5] - p[7] - p[12] + 9 p[13] - p[67] - 2 p[89] - p[106]
   - p[108] - p[135] - p[149] = 0
 equilibrium_14: - p[0] - p[3] - p[8] - p[9] - 2 p[13] + 9 p[14] - p[40]
   - p[91] - p[110] - p[112] = 0
 equilibrium_15: - p[14] + 9 p[15] - p[46] - p[50] - p[69] - p[148] = 0
 equilibrium_16: - p[15] + 9 p[16] - p[33] - p[36] - p[56] - p[81] - p[91]
   - p[102] - p[121] - p[137] - p[143] - p[145] = 0
 equilibrium_17: - p[4] - p[16] + 9 p[17] - p[35] - p[90] - p[125] = 0
 equilibrium_18: - p[17] + 9 p[18] - p[44] - p[57] - p[63] - p[64] - p[99]
   - p[125] - p[145] = 0
 equilibrium_19: - p[18] + 9 p[19] - p[38] - p[67] - p[99] - p[133] = 0
 equilibrium_20: - p[0] - p[2] - p[4] - p[19] + 9 p[20] - p[29] - p[31]
   - p[54] - p[84] - p[95] = 0
 equilibrium_21: - p[2] - p[20] + 9 p[21] - p[31] - p[47] - p[85] - p[135]
   = 0
 equilibrium_22: - p[21] + 9 p[22] - p[44] - p[49] - p[56] - p[75] - p[108]
   - p[115] = 0
 equilibrium_23: - p[8] - 2 p[22] + 9 p[23] - p[34] - p[35] - p[50]
   - p[134] = 0
 equilibrium_24: - p[23] + 9 p[24] - p[35] - p[59] - p[83] - 2 p[92]
   - p[120] - p[122] - p[135] - p[144] - p[147] = 0
 equilibrium_25: - p[24] + 9 p[25] - p[37] - p[73] - p[86] - p[88] - p[94]
   - p[98] - p[113] - p[140] - 2 p[148] = 0
 equilibrium_26: - p[13] - p[17] - p[25] + 9 p[26] - 2 p[31] - p[61]
   - p[73] - p[114] - p[138] = 0
 equilibrium_27: - p[11] - p[15] - 2 p[16] - p[26] + 9 p[27] - p[32]
   - p[58] - p[70] - p[89] - p[91] = 0
 equilibrium_28: - p[14] - p[27] + 9 p[28] - p[47] - p[52] - p[62] - p[81]
   - p[118] - p[122] - p[124] - p[132] - p[136] - p[140] = 0
 equilibrium_29: - p[16] - p[28] + 9 p[29] - p[32] - p[56] - p[71] - p[79]
   - p[80] - p[106] - p[125] = 0
 equilibrium_30: - p[29] + 9 p[30] - p[96] - p[117] - p[138] = 0
 equilibrium_31: - p[30] + 9 p[31] - p[36] - p[39] - p[76] - p[108]
   - p[124] - 2 p[127] - p[130] - p[148] = 0
 equilibrium_32: - p[10] - p[11] - p[29] - p[30] - p[31] + 9 p[32] - p[48]
   - p[51] - p[72] - p[95] - 2 p[110] - p[142] = 0
 equilibrium_33: - p[32] + 9 p[33] - p[45] - p[49] - p[76] - p[82] - p[86]
   - p[93] - p[137] = 0
 equilibrium_34: - p[6] - p[12] - 2 p[33] + 9 p[34] - p[53] - p[71]
   - p[104] - p[106] - p[120] - p[129] - p[144] = 0
 equilibrium_35: - p[15] - p[34] + 9 p[35] - p[38] - p[55] - p[63] - p[88]
   - p[97] - p[113] - p[131] - p[140] - p[142] = 0
 equilibrium_36: - p[12] - p[26] - p[34] - p[35] + 9 p[36] - p[55] - p[100]
   - p[116] - p[133] - p[136] = 0
 equilibrium_37: - p[2] - p[21] - p[31] - p[36] + 9 p[37] - p[79] - p[90]
   - p[100] - p[103] - p[110] - p[112] - p[114] - p[121] = 0
 equilibrium_38: - p[19] - p[24] - 2 p[37] + 9 p[38] - p[48] - p[60]
   - p[64] - p[77] - p[91] - p[108] - p[109] - p[141] - p[144] = 0
 equilibrium_39: - p[8] - p[38] + 9 p[39] - p[96] - p[104] - p[107]
   - p[118] - p[135] - p[141] - p[143] = 0
 equilibrium_40: - p[9] - p[11] - p[39] + 9 p[40] - p[70] - p[118] - p[137]
   = 0
 equilibrium_41: - p[13] - p[25] - p[40] + 9 p[41] - p[60] - p[94] - p[107]
   - p[110] - p[137] - p[144] = 0
 equilibrium_42: - p[37] - p[41] + 9 p[42] - p[52] - p[82] - p[113] = 0
 equilibrium_43: - p[7] - p[16] - p[42] + 9 p[43] - p[52] - p[66] - p[91]
   - p[98] - p[145] = 0
 equilibrium_44: - p[9] - p[15] - p[43] + 9 p[44] - p[63] - p[86] = 0
 equilibrium_45: - p[33] - p[34] - p[44] + 9 p[45] - p[52] - p[70] - p[86]
   - p[115] - p[118] - p[130] - p[139] = 0
 equilibrium_46: - p[42] - p[45] + 9 p[46] - p[48] - p[66] - p[67] - p[71]
   - p[78] - p[86] - p[88] - p[99] - 2 p[112] - p[115] - p[132] - p[146]
   - p[148] = 0
 equilibrium_47: - p[8] - p[11] - p[26] - p[27] - p[29] - p[32] - 2 p[46]
   + 9 p[47] - p[87] = 0
 equilibrium_48: - p[3] - p[33] - p[40] - p[47] + 9 p[48] - p[67] - p[103]
   - p[122] - p[124] - p[125] - p[145] = 0
 equilibrium_49: - p[6] - p[37] - p[48] + 9 p[49] - p[77] - p[79] = 0
 equilibrium_50: - p[3] - p[4] - p[18] - p[31] - p[39] - p[49] + 9 p[50]
   - p[76] - p[80] - p[84] - p[117] - p[129] - p[140] = 0
 equilibrium_51: - p[14] - p[19] - p[24] - p[42] - p[50] + 9 p[51] - p[58]
   - p[80] = 0
 equilibrium_52: - p[1] - p[5] - p[8] - p[21] - p[41] - p[51] + 9 p[52]
   - p[59] - p[75] - p[82] - p[109] - p[120] - p[133] - p[139] = 0
 equilibrium_53: - 2 p[7] - p[20] - p[27] - p[29] - p[35] - p[41] - p[52]
   + 9 p[53] - p[68] - p[77] - p[128] - p[140] - p[141] = 0
 equilibrium_54: - p[3] - p[42] - p[53] + 9 p[54] - p[74] - p[96] - p[119]
   - p[126] - p[127] - p[130] - p[142] - p[146] = 0
 equilibrium_55: - p[54] + 9 p[55] - p[66] - p[71] - p[87] - 2 p[89]
   - p[142] = 0
 equilibrium_56: - p[38] - p[55] + 9 p[56] - p[59] - p[78] - p[119]
   - p[120] - p[128] - p[138] - p[145] = 0
 equilibrium_57: - p[2] - p[35] - 2 p[40] - p[44] - p[45] - p[54] - p[56]
   + 9 p[57] - p[64] - p[66] = 0
 equilibrium_58: - p[3] - p[18] - p[57] + 9 p[58] - p[73] - p[94] - p[134]
   - p[147] = 0
 equilibrium_59: - p[4] - p[25] - p[37] - p[41] - p[58] + 9 p[59] - p[70]
   - p[105] - p[106] - p[116] = 0
 equilibrium_60: - p[32] - p[59] + 9 p[60] - p[65] - p[66] - p[84] - p[85]
   - p[87] - p[143] = 0
 equilibrium_61: - p[12] - p[15] - p[18] - p[19] - p[44] - p[56] - p[60]
   + 9 p[61] - p[96] - p[98] - p[103] - p[107] - p[124] - p[146] = 0
 equilibrium_62: - p[10] - p[14] - p[39] - p[44] - p[61] + 9 p[62] - p[73]
   - p[87] - p[102] - p[108] - p[119] - p[120] - p[122] - p[123] - p[126]
   = 0
 equilibrium_63: - p[3] - p[62] + 9 p[63] - p[94] - p[100] - 2 p[105]
   - p[139] = 0
 equilibrium_64: - p[9] - p[38] - p[51] - p[62] - p[63] + 9 p[64] - p[72]
   - p[102] - p[128] = 0
 equilibrium_65: - p[15] - p[39] - p[64] + 9 p[65] - p[78] - p[97] - p[111]
   = 0
 equilibrium_66: - p[34] - p[35] - p[51] - p[65] + 9 p[66] - p[92] - p[109]
   - p[128] - p[129] = 0
 equilibrium_67: - p[21] - p[29] - p[66] + 9 p[67] - p[92] - p[99] - p[113]
   - p[116] = 0
 equilibrium_68: - p[22] - 2 p[47] - p[49] - p[50] - p[59] - p[67]
   + 9 p[68] - p[81] - p[103] - p[114] - p[142] = 0
 equilibrium_69: - p[23] - p[40] - p[63] - p[68] + 9 p[69] - p[85] - p[95]
   - p[99] - p[136] = 0
 equilibrium_70: - p[9] - p[15] - p[63] - p[69] + 9 p[70] - p[124] = 0
 equilibrium_71: - p[0] - p[11] - p[70] + 9 p[71] - p[77] - p[105] - p[107]
   - p[117] - p[128] - p[149] = 0
 equilibrium_72: - p[4] - p[71] + 9 p[72] - p[86] - p[102] - p[143] = 0
 equilibrium_73: - p[52] - p[61] - p[69] - p[72] + 9 p[73] - p[81] - p[111]
   - p[114] - p[131] - p[145] = 0
 equilibrium_74: - p[1] - p[16] - p[27] - p[54] - p[60] - p[73] + 9 p[74]
   - p[79] - p[95] - p[97] - p[121] - p[136] = 0
 equilibrium_75: - p[47] - p[57] - p[61] - p[74] + 9 p[75] - p[104]
   - p[113] - p[137] = 0
 equilibrium_76: - p[75] + 9 p[76] - p[101] = 0
 equilibrium_77: - p[75] - p[76] + 9 p[77] - p[86] - p[89] - p[104]
   - p[106] - p[125] - p[130] = 0
 equilibrium_78: - p[77] + 9 p[78] - p[79] - p[80] - p[97] - p[98] - p[149]
   = 0
 equilibrium_79: - p[50] - p[67] - p[78] + 9 p[79] - p[82] - p[146] = 0
 equilibrium_80: - p[6] - p[10] - p[20] - p[53] - p[79] + 8 p[80] - p[87]
   - p[123] - p[134] - p[143] - p[147] = 0
 equilibrium_81: - p[8] - p[24] - p[29] - p[71] - p[79] - p[80] + 9 p[81]
   - p[132] = 0
 equilibrium_82: - p[58] - p[62] - p[75] - p[81] + 9 p[82] - p[93] - p[106]
   - p[146] = 0
 equilibrium_83: - p[5] - p[16] - p[28] - p[51] - p[56] - p[81] - p[82]
   + 9 p[83] - p[102] - p[123] = 0
 equilibrium_84: - p[48] - p[73] - p[75] - p[78] - p[83] + 9 p[84] - p[131]
   - p[137] = 0
 equilibrium_85: - p[15] - p[36] - p[39] - p[40] - p[47] - p[57] - p[62]
   - p[73] - p[84] + 9 p[85] - p[91] - p[111] - p[123] - p[134] - p[138]
   - p[148] = 0
 equilibrium_86: - p[20] - p[85] + 9 p[86] - p[127] - p[138] = 0
 equilibrium_87: - p[1] - p[2] - p[9] - p[86] + 9 p[87] - p[122] - p[129]
   = 0
 equilibrium_88: - p[2] - p[4] - p[9] - p[46] - p[87] + 9 p[88] - 2 p[107]
   - p[147] = 0
 equilibrium_89: - p[5] - p[13] - p[23] - p[25] - p[44] - 2 p[53] - p[64]
   - p[69] - p[86] - p[88] + 9 p[89] - p[100] - p[115] - p[119] - p[121]
   = 0
 equilibrium_90: - p[64] - p[80] - p[89] + 9 p[90] - p[121] = 0
 equilibrium_91: - p[5] - p[17] - p[39] - p[44] - p[65] - p[69] - p[76]
   - p[85] - p[90] + 9 p[91] - p[117] - p[129] = 0
 equilibrium_92: - p[0] - p[23] - p[28] - p[34] - p[47] - p[53] - p[84]
   - p[91] + 9 p[92] - p[105] - p[128] = 0
 equilibrium_93: - p[42] - p[48] - p[87] - p[92] + 9 p[93] - p[95] - p[96]
   - p[98] - p[103] = 0
 equilibrium_94: - p[7] - p[34] - p[52] - p[74] - p[76] - p[83] - p[93]
   + 9 p[94] - p[96] - p[103] - p[113] = 0
 equilibrium_95: - 2 p[14] - p[18] - p[24] - p[46] - p[49] - p[55] - p[84]
   - p[94] + 9 p[95] - p[129] = 0
 equilibrium_96: - p[22] - p[32] - p[95] + 9 p[96] - p[108] - p[110]
   - p[111] - p[129] = 0
 equilibrium_97: - p[22] - p[39] - p[73] - p[79] - p[96] + 9 p[97] - p[136]
   - p[139] - p[141] - p[144] = 0
 equilibrium_98: - p[12] - p[25] - p[26] - p[28] - p[33] - p[34] - p[37]
   - p[42] - p[55] - p[56] - p[59] - p[74] - p[88] - p[97] + 9 p[98]
   - p[133] = 0
 equilibrium_99: - p[1] - p[48] - p[49] - p[57] - p[98] + 9 p[99] - p[101]
   - p[116] - p[137] = 0
 equilibrium_100: - p[12] - p[19] - p[41] - p[48] - p[51] - p[55] - p[70]
   - p[94] - p[99] + 9 p[100] - p[102] - p[118] - p[145] = 0
 equilibrium_101: - p[69] - p[74] - p[100] + 9 p[101] - p[144] = 0
 equilibrium_102: - 2 p[0] - p[13] - p[18] - p[41] - p[79] - p[101]
   + 9 p[102] - p[126] - p[135] = 0
 equilibrium_103: - p[1] - p[6] - p[12] - p[24] - p[28] - p[35] - p[36]
   - p[83] - p[102] + 9 p[103] - p[108] - 2 p[109] - p[114] - p[115]
   - p[116] - p[123] - p[143] = 0
 equilibrium_104: - p[54] - p[56] - p[65] - p[73] - p[103] + 9 p[104]
   - p[105] - p[123] = 0
 equilibrium_105: - p[7] - p[43] - p[80] - p[104] + 9 p[105] - p[117]
   - p[138] = 0
 equilibrium_106: - p[0] - p[87] - p[90] - p[105] + 9 p[106] - p[115]
   - p[140] = 0
 equilibrium_107: - p[3] - p[16] - p[41] - p[63] - p[106] + 9 p[107]
   - p[122] - p[134] - p[144] = 0
 equilibrium_108: - p[31] - p[42] - p[60] - p[62] - p[72] - p[89] - p[92]
   - p[94] - p[107] + 9 p[108] - p[112] - p[136] - p[143] - p[147] = 0
 equilibrium_109: - p[28] - p[75] - p[108] + 9 p[109] - p[119] - p[127]
   = 0
 equilibrium_110: - p[5] - p[8] - p[32] - p[58] - p[82] - p[90] - 3 p[93]
   - p[109] + 8 p[110] - p[116] - p[142] = 0
 equilibrium_111: - p[25] - p[28] - p[57] - p[78] - p[95] - p[110]
   + 9 p[111] - p[131] = 0
 equilibrium_112: - p[18] - p[19] - 2 p[20] - p[25] - p[27] - p[55] - p[56]
   - p[65] - p[76] - p[88] - p[93] - p[98] - p[99] - p[111] + 9 p[112]
   - p[126] - p[141] = 0
 equilibrium_113: - p[36] - p[43] - p[54] - p[112] + 9 p[113] - p[122]
   - p[126] - p[134] = 0
 equilibrium_114: - p[30] - p[38] - p[53] - p[71] - p[82] - 2 p[90]
   - 2 p[113] + 9 p[114] - p[119] - p[125] - p[135] - p[140] - p[149] = 0
 equilibrium_115: - p[17] - p[22] - p[27] - p[34] - p[42] - p[114]
   + 9 p[115] = 0
 equilibrium_116: - p[1] - p[33] - p[44] - p[46] - p[58] - p[66] - p[68]
   - p[69] - p[104] - p[115] + 9 p[116] - p[120] - p[138] - p[149] = 0
 equilibrium_117: - p[18] - p[46] - p[67] - p[68] - p[72] - p[77] - p[83]
   - p[97] - p[99] - p[111] - p[116] + 9 p[117] - p[123] - p[147] = 0
 equilibrium_118: - p[30] - p[72] - p[91] - p[117] + 9 p[118] - p[133] = 0
 equilibrium_119: - p[27] - p[43] - p[54] - p[104] - p[116] - p[118]
   + 9 p[119] - p[130] - p[134] = 0
 equilibrium_120: - 2 p[17] - p[87] - p[94] - p[119] + 9 p[120] = 0
 equilibrium_121: - p[0] - p[45] - p[60] - p[62] - p[69] - p[84] - p[117]
   - p[120] + 9 p[121] - p[137] - p[139] = 0
 equilibrium_122: - p[10] - p[21] - p[59] - p[77] - p[106] - p[111]
   - p[121] + 9 p[122] - p[124] = 0
 equilibrium_123: - p[8] - p[14] - p[22] - p[33] - p[43] - p[51] - p[122]
   + 9 p[123] - p[127] = 0
 equilibrium_124: - p[40] - p[108] - p[123] + 9 p[124] - p[131] = 0
 equilibrium_125: - p[21] - p[46] - 2 p[64] - p[82] - p[91] - p[100]
   - p[124] + 9 p[125] = 0
 equilibrium_126: - p[36] - p[45] - p[65] - p[88] - p[117] - p[125]
   + 9 p[126] = 0
 equilibrium_127: - p[17] - p[24] - p[28] - 2 p[30] - p[35] - p[50] - p[58]
   - p[121] - p[126] + 9 p[127] - p[134] - p[136] = 0
 equilibrium_128: - p[10] - p[17] - p[20] - p[24] - p[26] - p[45] - p[46]
   - p[74] - p[126] - p[127] + 9 p[128] - p[132] - p[143] = 0
 equilibrium_129: - p[2] - p[5] - p[19] - p[20] - p[21] - p[36] - p[53]
   - p[89] - p[101] - p[102] - p[113] - p[121] - p[128] + 9 p[129] - p[132]
   - p[140] = 0
 equilibrium_130: - p[1] - p[3] - p[12] - p[19] - p[27] - p[65] - p[96]
   - p[127] - p[129] + 9 p[130] - p[144] = 0
 equilibrium_131: - p[4] - p[6] - p[14] - p[63] - p[81] - 2 p[83] - p[107]
   - p[126] - p[130] + 9 p[131] = 0
 equilibrium_132: - p[60] - p[74] - p[78] - p[80] - p[85] - p[98] - p[116]
   - p[131] + 9 p[132] = 0
 equilibrium_133: - p[6] - p[16] - p[66] - p[71] - p[97] - p[101] - p[109]
   - p[114] - p[132] + 9 p[133] - p[138] = 0
 equilibrium_134: - p[4] - p[11] - p[30] - p[37] - p[54] - p[110] - p[121]
   - p[128] - p[133] + 9 p[134] - p[149] = 0
 equilibrium_135: - 2 p[10] - p[30] - p[62] - p[70] - p[98] - p[112]
   - p[134] + 9 p[135] = 0
 equilibrium_136: - p[13] - p[18] - p[36] - p[45] - p[61] - p[96] - p[104]
   - p[117] - p[120] - p[133] - p[135] + 9 p[136] - p[149] = 0
 equilibrium_137: - p[49] - p[54] - p[81] - p[92] - p[101] - p[136]
   + 9 p[137] - p[139] = 0
 equilibrium_138: - p[10] - p[22] - p[100] - p[137] + 9 p[138] = 0
 equilibrium_139: - p[26] - p[45] - p[51] - p[57] - p[59] - p[99] - p[115]
   - p[133] - p[138] + 9 p[139] = 0
 equilibrium_140: - p[52] - p[57] - p[61] - p[64] - p[70] - p[112] - p[115]
   - p[124] - p[139] + 9 p[140] = 0
 equilibrium_141: - p[13] - p[29] - p[38] - p[60] - p[78] - p[100] - p[130]
   - p[140] + 9 p[141] = 0
 equilibrium_142: - p[14] - p[39] - p[68] - p[103] - p[109] - p[119]
   - p[141] + 9 p[142] - p[147] = 0
 equilibrium_143: - p[22] - p[25] - p[38] - p[43] - p[47] - p[48] - p[58]
   - p[59] - p[68] - p[83] - p[125] - p[130] - p[142] + 9 p[143] = 0
 equilibrium_144: - p[21] - p[30] - p[43] - p[61] - p[63] - p[70] - p[75]
   - p[78] - p[81] - p[92] - p[109] - p[139] - p[143] + 9 p[144] - p[148]
   = 0
 equilibrium_145: - p[7] - p[28] - p[60] - p[67] - p[72] - p[93] - p[107]
   - p[136] - p[144] + 9 p[145] = 0
 equilibrium_146: - p[21] - 2 p[23] - p[26] - p[32] - p[43] - p[49] - p[57]
   - p[67] - p[84] - 2 p[131] - p[145] + 9 p[146] = 0
 equilibrium_147: - 2 p[23] - p[27] - p[29] - p[65] - p[114] - p[123]
   - p[132] - p[142] - p[146] + 9 p[147] = 0
 equilibrium_148: - p[66] - p[74] - p[85] - p[118] - p[120] - p[141]
   - p[146] - p[147] + 9 p[148] = 0
 equilibrium_149: - p[1] - p[40] - p[95] - p[105] - p[122] - p[142]
   - p[148] + 9 p[149] = 0
Bounds
 p[0] free
 p[1] free
 p[2] free
 p[3] free
 p[4] free
 p[5] free
 p[6] free
 p[7] free
 p[8] free
 p[9] free
 p[10] free
 p[11] free
 p[12] free
 p[13] free
 p[14] free
 p[15] free
 p[16] free
 p[17] free
 p[18] free
 p[19] free
 p[20] free
 p[21] free
 p[22] free
 p[23] free
 p[24] free
 p[25] free
 p[26] free
 p[27] free
 p[28] free
 p[29] free
 p[30] free
 p[31] free
 p[32] free
 p[33] free
 p[34] free
 p[35] free
 p[36] free
 p[37] free
 p[38] free
 p[39] free
 p[40] free
 p[41] free
 p[42] free
 p[43] free
 p[44] free
 p[45] free
 p[46] free
 p[47] free
 p[48] free
 p[49] free
 p[50] free
 p[51] free
 p[52] free
 p[53] free
 p[54] free
 p[55] free
 p[56] free
 p[57] free
 p[58] free
 p[59] free
 p[60] free
 p[61] free
 p[62] free
 p[63] free
 p[64] free
 p[65] free
 p[66] free
 p[67] free
 p[68] free
 p[69] free
 p[70] free
 p[71] free
 p[72] free
 p[73] free
 p[74] free
 p[75] free
 p[76] free
 p[77] free
 p[78] free
 p[79] free
 p[80] free
 p[81] free
 p[82] free
 p[83] free
 p[84] free
 p[85] free
 p[86] free
 p[87] free
 p[88] free
 p[89] free
 p[90] free
 p[91] free
 p[92] free
 p[93] free
 p[94] free
 p[95] free
 p[96] free
 p[97] free
 p[98] free
 p[99] free
 p[100] free
 p[101] free
 p[102] free
 p[103] free
 p[104] free
 p[105] free
 p[106] free
 p[107] free
 p[108] free
 p[109] free
 p[110] free
 p[111] free
 p[112] free
 p[113] free
 p[114] free
 p[115] free
 p[116] free
 p[117] free
 p[118] free
 p[119] free
 p[120] free
 p[121] free
 p[122] free
 p[123] free
 p[124] free
 p[125] free
 p[126] free
 p[127] free
 p[128] free
 p[129] free
 p[130] free
 p[131] free
 p[132] free
 p[133] free
 p[134] free
 p[135] free
 p[136] free
 p[137] free
 p[138] free
 p[139] free
 p[140] free
 p[141] free
 p[142] free
 p[143] free
 p[144] free
 p[145] free
 p[146] free
 p[147] free
 p[148] free
 p[149] free
End
